Version identifier: 22.1.0.0 | 2022-03-09 | 1a383f8ce
CPXPARAM_Threads                                 1
CPXPARAM_MIP_Strategy_VariableSelect             3
CPXPARAM_TimeLimit                               599.99998244100004
1 of 1 MIP starts provided solutions.
MIP start 'm1' defined initial solution with objective 1.0000.
Tried aggregator 1 time.
MIP Presolve eliminated 21 rows and 0 columns.
MIP Presolve modified 38 coefficients.
Reduced MIP has 4500 rows, 10500 columns, and 246873 nonzeros.
Reduced MIP has 10500 binaries, 0 generals, 0 SOSs, and 0 indicators.
Presolve time = 0.24 sec. (396.71 ticks)
Probing time = 0.04 sec. (33.03 ticks)
Tried aggregator 1 time.
Detecting symmetries...
MIP Presolve modified 12 coefficients.
Reduced MIP has 4500 rows, 10500 columns, and 247051 nonzeros.
Reduced MIP has 10500 binaries, 0 generals, 0 SOSs, and 0 indicators.
Presolve time = 0.24 sec. (376.67 ticks)
Probing time = 0.03 sec. (33.04 ticks)
Clique table members: 2244.
MIP emphasis: balance optimality and feasibility.
MIP search method: dynamic search.
Parallel mode: none, using 1 thread.
Root relaxation solution time = 129.66 sec. (158185.55 ticks)

        Nodes                                         Cuts/
   Node  Left     Objective  IInf  Best Integer    Best Bound    ItCnt     Gap

*     0+    0                            1.0000   125250.0000              --- 
      0     0      500.0000  1975        1.0000      500.0000   158787     --- 
      0     0      500.0000   904        1.0000       Cuts: 9   161075     --- 
      0     0      500.0000   847        1.0000      Cuts: 47   164859     --- 
      0     0      500.0000   747        1.0000      Cuts: 51   171768     --- 
*     0+    0                          396.0000      500.0000            26.26%
*     0+    0                          459.0000      500.0000             8.93%
      0     0        cutoff            459.0000      500.0000   171768    8.93%
Heuristic still looking.
*     0+    0                          487.0000      500.0000             2.67%
*     0+    0                          495.0000      500.0000             1.01%
*     0+    0                          498.0000      500.0000             0.40%
Detecting symmetries...
      0     2      500.0000   194      498.0000      500.0000   171768    0.40%
Elapsed time = 296.50 sec. (335164.51 ticks, tree = 0.01 MB, solutions = 6)
      1     3      500.0000   617      498.0000      500.0000   193036    0.40%
      2     4      500.0000   411      498.0000      500.0000   198032    0.40%
      3     5      500.0000   691      498.0000      500.0000   207507    0.40%
      4     6      500.0000   501      498.0000      500.0000   207763    0.40%
      5     7      500.0000   503      498.0000      500.0000   208317    0.40%
      6     8      500.0000   494      498.0000      500.0000   210031    0.40%
      7     9      500.0000   452      498.0000      500.0000   212229    0.40%
      8    10      500.0000   555      498.0000      500.0000   214881    0.40%
      9    11      500.0000   462      498.0000      500.0000   214978    0.40%
     10    12      500.0000   572      498.0000      500.0000   217545    0.40%
Elapsed time = 326.01 sec. (363315.54 ticks, tree = 0.22 MB, solutions = 6)
     12    14      500.0000   520      498.0000      500.0000   218600    0.40%
     14    16      500.0000   486      498.0000      500.0000   218969    0.40%
     16    18      500.0000   500      498.0000      500.0000   221635    0.40%
     18    20      500.0000   473      498.0000      500.0000   222528    0.40%
     19    21      500.0000   455      498.0000      500.0000   226994    0.40%
     20    22      500.0000   461      498.0000      500.0000   227161    0.40%
     22    24      500.0000   547      498.0000      500.0000   229143    0.40%
     24    26      500.0000   444      498.0000      500.0000   229873    0.40%
     25    27      500.0000   514      498.0000      500.0000   231082    0.40%
     26    28      500.0000   515      498.0000      500.0000   233586    0.40%
Elapsed time = 343.27 sec. (379587.64 ticks, tree = 0.85 MB, solutions = 6)
     28    30      500.0000   489      498.0000      500.0000   235466    0.40%
     30    32      500.0000   522      498.0000      500.0000   238886    0.40%
     32    34      500.0000   494      498.0000      500.0000   240170    0.40%
     34    36      500.0000   537      498.0000      500.0000   242712    0.40%
     36    38      500.0000   559      498.0000      500.0000   251683    0.40%
     38    40      500.0000   599      498.0000      500.0000   256938    0.40%
     40    42      500.0000   532      498.0000      500.0000   258883    0.40%
     42    44      500.0000   512      498.0000      500.0000   259910    0.40%
     45    47      500.0000   492      498.0000      500.0000   261610    0.40%
     47    49      500.0000   469      498.0000      500.0000   263774    0.40%
Elapsed time = 410.39 sec. (441583.19 ticks, tree = 1.60 MB, solutions = 6)
     49    51      500.0000   545      498.0000      500.0000   268635    0.40%
     51    53      500.0000   470      498.0000      500.0000   269893    0.40%
     53    55      500.0000   485      498.0000      500.0000   270695    0.40%
     54    56      500.0000   474      498.0000      500.0000   273114    0.40%
     55    57      500.0000   511      498.0000      500.0000   273918    0.40%
     57    59      500.0000   821      498.0000      500.0000   279954    0.40%
     59    61      500.0000   768      498.0000      500.0000   285426    0.40%
     60    62      500.0000   583      498.0000      500.0000   285662    0.40%
     61    63      500.0000   526      498.0000      500.0000   287835    0.40%
     62    64      500.0000   542      498.0000      500.0000   289420    0.40%
Elapsed time = 431.03 sec. (461503.16 ticks, tree = 2.19 MB, solutions = 6)
     64    66      500.0000   609      498.0000      500.0000   291387    0.40%
     66    68      500.0000  1179      498.0000      500.0000   302453    0.40%
     68    70      500.0000   497      498.0000      500.0000   303605    0.40%
     69    71      500.0000   500      498.0000      500.0000   306289    0.40%
     71    73      500.0000   530      498.0000      500.0000   316233    0.40%
     72    74      500.0000   540      498.0000      500.0000   316399    0.40%
     73    75      500.0000   534      498.0000      500.0000   317951    0.40%
     75    77      500.0000   560      498.0000      500.0000   320604    0.40%
     77    79      500.0000   530      498.0000      500.0000   320634    0.40%
     79    81      500.0000   471      498.0000      500.0000   326007    0.40%
Elapsed time = 456.52 sec. (486303.81 ticks, tree = 2.83 MB, solutions = 6)
     80    82      500.0000   418      498.0000      500.0000   326758    0.40%
     82    84      500.0000   340      498.0000      500.0000   329477    0.40%
     85    87      500.0000   324      498.0000      500.0000   333841    0.40%
     88    90      500.0000   312      498.0000      500.0000   335369    0.40%
     90    92      500.0000   308      498.0000      500.0000   342193    0.40%
     93    95      500.0000   345      498.0000      500.0000   346795    0.40%
     96    98      500.0000   320      498.0000      500.0000   348522    0.40%
     99   101      500.0000   276      498.0000      500.0000   350329    0.40%
    102   104      500.0000   251      498.0000      500.0000   352545    0.40%
    105   107      500.0000   281      498.0000      500.0000   356075    0.40%
Elapsed time = 470.48 sec. (499105.75 ticks, tree = 3.81 MB, solutions = 6)
    108   110      500.0000   373      498.0000      500.0000   361592    0.40%
    112   114      500.0000   276      498.0000      500.0000   365432    0.40%
    114   116      500.0000   428      498.0000      500.0000   377657    0.40%
    116   118      500.0000   260      498.0000      500.0000   383035    0.40%
    118   120      500.0000   562      498.0000      500.0000   392129    0.40%
    120   122      500.0000   593      498.0000      500.0000   398645    0.40%
    123   125      500.0000   259      498.0000      500.0000   402180    0.40%
    126   128      500.0000   241      498.0000      500.0000   405253    0.40%
    128   130      500.0000   590      498.0000      500.0000   416739    0.40%
    130   132      500.0000   828      498.0000      500.0000   423333    0.40%
Elapsed time = 497.70 sec. (524283.57 ticks, tree = 4.80 MB, solutions = 6)
    132   134      500.0000   245      498.0000      500.0000   430976    0.40%
    135   137      500.0000   309      498.0000      500.0000   440721    0.40%
    137   139      500.0000  1096      498.0000      500.0000   454147    0.40%
    139   141      500.0000   261      498.0000      500.0000   456484    0.40%
    141   143      500.0000   612      498.0000      500.0000   460540    0.40%
    143   145      500.0000   497      498.0000      500.0000   464228    0.40%
    146   148      500.0000   859      498.0000      500.0000   478397    0.40%
    148   150      500.0000   374      498.0000      500.0000   491780    0.40%
    150   152      500.0000   413      498.0000      500.0000   498326    0.40%
    153   155      500.0000   448      498.0000      500.0000   500488    0.40%
Elapsed time = 520.73 sec. (544506.39 ticks, tree = 5.74 MB, solutions = 6)
    155   157      500.0000   378      498.0000      500.0000   510716    0.40%
    157   159      500.0000   640      498.0000      500.0000   524663    0.40%
    159   161      500.0000   476      498.0000      500.0000   531724    0.40%
    160   162      500.0000   371      498.0000      500.0000   531871    0.40%
    163   165      500.0000   412      498.0000      500.0000   538661    0.40%
    166   168      500.0000   371      498.0000      500.0000   543570    0.40%
    169   171      500.0000   388      498.0000      500.0000   553778    0.40%
    171   173      500.0000   820      498.0000      500.0000   562518    0.40%
    174   176      500.0000   365      498.0000      500.0000   567169    0.40%
    175   177      500.0000   438      498.0000      500.0000   577318    0.40%
Elapsed time = 537.25 sec. (557919.79 ticks, tree = 6.57 MB, solutions = 6)
    177   179      500.0000   457      498.0000      500.0000   583818    0.40%
    181   183      500.0000   592      498.0000      500.0000   591017    0.40%
    183   185      500.0000   428      498.0000      500.0000   597508    0.40%
    185   187      500.0000   885      498.0000      500.0000   605996    0.40%
    188   190      500.0000   362      498.0000      500.0000   613381    0.40%
    191   193      500.0000   366      498.0000      500.0000   616900    0.40%
    192   194      500.0000   854      498.0000      500.0000   625971    0.40%
    195   197      500.0000   686      498.0000      500.0000   639581    0.40%
    198   200      500.0000   355      498.0000      500.0000   643645    0.40%
Starting limited solution polishing.
    206   208      500.0000   371      498.0000      500.0000   666533    0.40%
Elapsed time = 555.96 sec. (573165.50 ticks, tree = 7.83 MB, solutions = 6)
    217   219      500.0000   478      498.0000      500.0000   685773    0.40%
    226   228      500.0000   368      498.0000      500.0000   708726    0.40%
    235   237      500.0000   582      498.0000      500.0000   740647    0.40%
    241   243      500.0000   492      498.0000      500.0000   763308    0.40%
    250   252      500.0000   386      498.0000      500.0000   787805    0.40%
    258   260      500.0000   540      498.0000      500.0000   812533    0.40%
    262   264      500.0000   479      498.0000      500.0000   834373    0.40%
    269   271      500.0000   499      498.0000      500.0000   858107    0.40%

Clique cuts applied:  37
Zero-half cuts applied:  12
Gomory fractional cuts applied:  1

Root node processing (before b&c):
  Real time             =  295.78 sec. (334502.86 ticks)
Sequential b&c:
  Real time             =  304.22 sec. (275605.01 ticks)
                          ------------
Total (root+branch&cut) =  600.01 sec. (610107.87 ticks)
Primal:	498
Dual:	500
Status:	Feasible
Time:	600.02
Sequence:
	13
	12
	5
	2
	19
	5
	10
	4
	12
	0
	13
	3
	14
	4
	10
	5
	11
	2
	8
	15
	16
	7
	1
	9
	12
	7
	13
	3
	14
	4
	10
	5
	19
	5
	2
	11
	12
	0
	9
	14
	1
	9
	7
	12
	13
	6
	18
	19
	16
	0
	15
	1
	16
	15
	6
	16
	19
	5
	0
	13
	12
	0
	5
	19
	2
	18
	19
	16
	6
	15
	10
	1
	4
	17
	14
	18
	2
	19
	18
	10
	5
	19
	2
	8
	15
	10
	6
	1
	15
	16
	5
	19
	2
	14
	18
	13
	3
	1
	9
	18
	8
	19
	2
	18
	19
	16
	5
	3
	13
	6
	12
	7
	9
	8
	3
	16
	4
	14
	17
	11
	6
	17
	11
	14
	17
	4
	14
	0
	9
	12
	7
	13
	3
	14
	9
	6
	8
	19
	5
	2
	15
	14
	2
	18
	19
	10
	18
	6
	13
	6
	12
	9
	1
	3
	13
	5
	14
	2
	19
	18
	16
	18
	19
	2
	8
	15
	16
	7
	11
	17
	8
	4
	10
	0
	15
	10
	0
	5
	19
	10
	18
	0
	9
	1
	5
	11
	17
	18
	11
	18
	1
	9
	12
	6
	13
	6
	12
	9
	1
	5
	11
	17
	14
	6
	17
	11
	5
	17
	11
	1
	17
	18
	11
	17
	1
	18
	17
	11
	6
	16
	15
	7
	16
	11
	18
	17
	11
	14
	2
	15
	8
	2
	15
	1
	10
	15
	6
	10
	19
	5
	2
	12
	0
	13
	0
	5
	13
	0
	12
	4
	10
	3
	14
	9
	1
	7
	10
	15
	8
	2
	19
	5
	16
	5
	19
	2
	18
	12
	13
	6
	3
	13
	5
	3
	13
	1
	18
	17
	11
	14
	2
	5
	11
	17
	8
	4
	10
	6
	14
	17
	11
	6
	10
	4
	8
	17
	0
	14
	19
	5
	0
	13
	12
	6
	9
	1
	8
	17
	4
	8
	3
	9
	1
	14
	9
	3
	8
	11
	17
	18
	1
	11
	17
	18
	11
	10
	0
	15
	16
	1
	4
	17
	8
	11
	17
	6
	14
	16
	6
	4
	16
	12
	6
	9
	1
	12
	9
	7
	12
	4
	10
	18
	19
	0
	16
	15
	8
	2
	19
	18
	16
	15
	6
	6
	13
	14
	3
	9
	0
	12
	13
	6
	3
	13
	8
	3
	9
	1
	14
	9
	3
	14
	4
	17
	8
	11
	17
	6
	8
	17
	11
	18
	1
	9
	12
	6
	13
	3
	18
	13
	1
	7
	9
	12
	1
	9
	6
	12
	13
	7
	18
	19
	10
	18
	4
	12
	2
	14
	4
	10
	5
	19
	2
	14
	15
	10
	7
	19
	2
	8
	15
	2
	8
	4
	16
	5
	11
	17
	6
	5
	16
	19
	18
	2
	12
	6
	9
	8
	3
	13
	7
	18
	10
	19
	18
	0
	13
	0
	14
	9
	7
	12
	11
	18
	17
	11
	14
	3
	9
	14
	1
	9
	7
	12
	13
	0
	3
	13
	14
	3
	9
	1
	18
	13
	3
	1
	9
	8
	3
	13
	6
	12
	4
	10
	18
	7
	19
	10
